File/outputFile/tourFile/lkh_output9.txt
NAME : ../File/prFile/tspFile/tsp_file9.tsp.409.tour
COMMENT : Length = 409
COMMENT : Found by LKH-3 [Keld Helsgaun] Wed Jun 14 17:47:17 2023
TYPE : TOUR
DIMENSION : 30
TOUR_SECTION
1
10
3
4
5
9
21
24
26
22
20
11
7
2
13
25
28
16
17
8
29
15
27
6
19
12
23
18
30
14
-1
EOF
