utils/lkh_output9.tour
NAME : tsp_file.tsp.480.tour
COMMENT : Length = 480
COMMENT : Found by LKH-3 [Keld Helsgaun] Wed Jun 14 10:44:29 2023
TYPE : TOUR
DIMENSION : 30
TOUR_SECTION
1
15
29
14
17
7
30
22
19
9
23
5
24
4
8
28
2
13
26
21
11
18
10
20
27
6
12
3
16
25
-1
EOF
